\ Model Capacitated_Facility_Location
\ LP format - for model browsing. Use MPS format to capture full model detail.
Minimize
  67.8460428068 y[0] + 24.2851856051 y[1] + 12.8687747808 y[2]
   + 89.13844409879999 y[3] + 25.3753194311 y[4] + 59.8573961998 x[0,0]
   + 59.8573961998 x[0,1] + 59.8573961998 x[0,2] + 59.8573961998 x[0,3]
   + 59.8573961998 x[0,4] + 62.3187695229 x[1,0] + 62.3187695229 x[1,1]
   + 62.3187695229 x[1,2] + 62.3187695229 x[1,3] + 62.3187695229 x[1,4]
   + 42.5032666183 x[2,0] + 42.5032666183 x[2,1] + 42.5032666183 x[2,2]
   + 42.5032666183 x[2,3] + 42.5032666183 x[2,4] + 58.7835566398 x[3,0]
   + 58.7835566398 x[3,1] + 58.7835566398 x[3,2] + 58.7835566398 x[3,3]
   + 58.7835566398 x[3,4] + 52.7554888377 x[4,0] + 52.7554888377 x[4,1]
   + 52.7554888377 x[4,2] + 52.7554888377 x[4,3] + 52.7554888377 x[4,4]
Subject To
 Demand_Constraint_0: x[0,0] + x[1,0] + x[2,0] + x[3,0] + x[4,0]
   >= 67.497332073
 Demand_Constraint_1: x[0,1] + x[1,1] + x[2,1] + x[3,1] + x[4,1]
   >= 30.6997109001
 Demand_Constraint_2: x[0,2] + x[1,2] + x[2,2] + x[3,2] + x[4,2]
   >= 32.3015424309
 Demand_Constraint_3: x[0,3] + x[1,3] + x[2,3] + x[3,3] + x[4,3]
   >= 75.434584749
 Demand_Constraint_4: x[0,4] + x[1,4] + x[2,4] + x[3,4] + x[4,4]
   >= 8.181768334799999
 Capacity_Constraint_0: - 46.3702667392 y[0] + x[0,0] + x[0,1] + x[0,2]
   + x[0,3] + x[0,4] <= 0
 Capacity_Constraint_1: - 99.8469896446 y[1] + x[1,0] + x[1,1] + x[1,2]
   + x[1,3] + x[1,4] <= 0
 Capacity_Constraint_2: - 99.6135483377 y[2] + x[2,0] + x[2,1] + x[2,2]
   + x[2,3] + x[2,4] <= 0
 Capacity_Constraint_3: - 8.2528113889 y[3] + x[3,0] + x[3,1] + x[3,2]
   + x[3,3] + x[3,4] <= 0
 Capacity_Constraint_4: - 22.1022769144 y[4] + x[4,0] + x[4,1] + x[4,2]
   + x[4,3] + x[4,4] <= 0
Bounds
 x[0,0] = 0
 x[0,1] = 0
 x[0,2] = 0
 x[0,3] = 0
 x[0,4] = 0
 x[1,1] = 0
 x[1,2] = 0
 x[1,3] = 0
 x[1,4] = 0
 x[2,0] = 0
 x[2,2] = 0
 x[2,3] = 0
 x[2,4] = 0
 x[3,0] = 0
 x[3,4] = 0
 x[4,0] = 0
 x[4,1] = 0
 x[4,2] = 0
 x[4,4] = 0
Binaries
 y[0] y[1] y[2] y[3] y[4]
End
